(set-info :smt-lib-version 2.6)
(set-logic QF_FPLIA)
(set-info :source |Random FP created by PyMPF|)
(set-info :license |https://www.gnu.org/licenses/gpl-3.0.html|)
(set-info :category random)
(set-info :status unsat)
;; (fp.from.int RTP halfpoint_int)
(declare-const x Int)
(assert (= x (- 42284421473079140193218620881111089152)))
(declare-const y Float32)
(assert (= y ((_ to_fp 8 24) x)))
;; y should be Float32(0xFDFE7D77 [Rational(-42284420205428539964989219384407883776), -42284420205428539964989219384407883776.000000])

(declare-const z Float32)
(assert (= z ((_ to_fp 8 24) #xFDFE7D77)))
(assert (not (= y z)))
